NAME : 10_3_3_2_(10).dat
COMMENT : Henke, Speranza, Wäscher, 2015
TYPE : MCVRP
DIMENSION : 11
EDGE_WEIGHT_TYPE : DISTANCE_MATRIX
CAPACITY : 1000
VEHICLES : 3
PRODUCT TYPES : 3
COMPARTMENTS : 3
NODE_COORD_SECTION
1 50 50
2 29.14 99.67
3 30.3 41.55
4 17.59 0.22
5 50.96 44.64
6 32.34 86.15
7 40.53 45.03
8 8.98 52.33
9 65.44 24.74
10 64.27 89.69
11 94.69 10.83
DEMAND_SECTION
1 0 0 0
2 0 27 54
3 113 126 0
4 30 0 32
5 0 154 17
6 143 0 28
7 38 25 0
8 0 136 63
9 153 0 39
10 154 0 70
11 150 0 9
DEPOT_SECTION
1
EOF